

(declare-sort |dff_s| 0)
(declare-fun |dff_is| (|dff_s|) Bool)
(declare-fun |dff#0| (|dff_s|) Bool) 


(define-fun |dff_n CK| ((state |dff_s|)) Bool (|dff#0| state))
(declare-fun |dff#1| (|dff_s|) Bool) 


(define-fun |dff_n D| ((state |dff_s|)) Bool (|dff#1| state))
(define-fun |dff#2| ((state |dff_s|)) (_ BitVec 1) (bvnot (ite (|dff#0| state) #b1 #b0))) 
(define-fun |dff#3| ((state |dff_s|)) (_ BitVec 1) (ite (|dff#1| state) (|dff#2| state) #b0)) 
(define-fun |dff#4| ((state |dff_s|)) (_ BitVec 1) (ite (= ((_ extract 0 0) (|dff#3| state)) #b1) #b0 (ite (|dff#0| state) #b1 #b0))) 
(define-fun |dff#5| ((state |dff_s|)) (_ BitVec 1) (bvnot (|dff#4| state))) 

(define-fun |dff_n Q| ((state |dff_s|)) Bool (= ((_ extract 0 0) (|dff#5| state)) #b1))
(define-fun |dff_a| ((state |dff_s|)) Bool true)
(define-fun |dff_u| ((state |dff_s|)) Bool true)
(define-fun |dff_i| ((state |dff_s|)) Bool true)
(define-fun |dff_h| ((state |dff_s|)) Bool true)
(define-fun |dff_t| ((state |dff_s|) (next_state |dff_s|)) Bool true) 

(declare-sort |s349_s| 0)
(declare-fun |s349_is| (|s349_s|) Bool)
(declare-fun |s349#0| (|s349_s|) Bool) 


(define-fun |s349_n A0| ((state |s349_s|)) Bool (|s349#0| state))
(declare-fun |s349#1| (|s349_s|) Bool) 


(define-fun |s349_n A1| ((state |s349_s|)) Bool (|s349#1| state))
(declare-fun |s349#2| (|s349_s|) Bool) 


(define-fun |s349_n A2| ((state |s349_s|)) Bool (|s349#2| state))
(declare-fun |s349#3| (|s349_s|) Bool) 


(define-fun |s349_n A3| ((state |s349_s|)) Bool (|s349#3| state))
(declare-fun |s349#4| (|s349_s|) Bool) 


(define-fun |s349_n B0| ((state |s349_s|)) Bool (|s349#4| state))
(declare-fun |s349#5| (|s349_s|) Bool) 


(define-fun |s349_n B1| ((state |s349_s|)) Bool (|s349#5| state))
(declare-fun |s349#6| (|s349_s|) Bool) 


(define-fun |s349_n B2| ((state |s349_s|)) Bool (|s349#6| state))
(declare-fun |s349#7| (|s349_s|) Bool) 


(define-fun |s349_n B3| ((state |s349_s|)) Bool (|s349#7| state))
(declare-fun |s349#8| (|s349_s|) Bool) 


(define-fun |s349_n CK| ((state |s349_s|)) Bool (|s349#8| state))


(declare-fun |s349#9| (|s349_s|) Bool) 
(declare-fun |s349_h DFF_0| (|s349_s|) |dff_s|)
(define-fun |s349#10| ((state |s349_s|)) (_ BitVec 1) (bvnot (ite (|s349#9| state) #b1 #b0))) 


(declare-fun |s349#11| (|s349_s|) Bool) 
(declare-fun |s349_h DFF_1| (|s349_s|) |dff_s|)


(declare-fun |s349#12| (|s349_s|) Bool) 
(declare-fun |s349_h DFF_2| (|s349_s|) |dff_s|)
(define-fun |s349#13| ((state |s349_s|)) (_ BitVec 1) (bvand (ite (|s349#11| state) #b1 #b0) (ite (|s349#12| state) #b1 #b0))) 
(define-fun |s349#14| ((state |s349_s|)) (_ BitVec 1) (bvnot (|s349#13| state))) 
(define-fun |s349#15| ((state |s349_s|)) (_ BitVec 1) (bvor (|s349#10| state) (|s349#14| state))) 
(define-fun |s349#16| ((state |s349_s|)) (_ BitVec 1) (bvnot (|s349#15| state))) 

(define-fun |s349_n CNTVCO2| ((state |s349_s|)) Bool (= ((_ extract 0 0) (|s349#16| state)) #b1))
(define-fun |s349#17| ((state |s349_s|)) (_ BitVec 1) (bvnot (ite (|s349#11| state) #b1 #b0))) 
(define-fun |s349#18| ((state |s349_s|)) (_ BitVec 1) (bvnot (ite (|s349#12| state) #b1 #b0))) 
(define-fun |s349#19| ((state |s349_s|)) (_ BitVec 1) (bvor (|s349#17| state) (|s349#18| state))) 
(define-fun |s349#20| ((state |s349_s|)) (_ BitVec 1) (bvnot (|s349#19| state))) 
(define-fun |s349#21| ((state |s349_s|)) (_ BitVec 1) (bvand (ite (|s349#9| state) #b1 #b0) (|s349#20| state))) 
(define-fun |s349#22| ((state |s349_s|)) (_ BitVec 1) (bvnot (|s349#21| state))) 

(define-fun |s349_n CNTVCON2| ((state |s349_s|)) Bool (= ((_ extract 0 0) (|s349#22| state)) #b1))
(declare-fun |s349#23| (|s349_s|) Bool) 


(define-fun |s349_n GND| ((state |s349_s|)) Bool (|s349#23| state))


(declare-fun |s349#24| (|s349_s|) Bool) 
(declare-fun |s349_h DFF_10| (|s349_s|) |dff_s|)
(define-fun |s349#25| ((state |s349_s|)) (_ BitVec 1) (bvnot (ite (|s349#24| state) #b1 #b0))) 

(define-fun |s349_n P0| ((state |s349_s|)) Bool (= ((_ extract 0 0) (|s349#25| state)) #b1))


(declare-fun |s349#26| (|s349_s|) Bool) 
(declare-fun |s349_h DFF_9| (|s349_s|) |dff_s|)
(define-fun |s349#27| ((state |s349_s|)) (_ BitVec 1) (bvnot (ite (|s349#26| state) #b1 #b0))) 

(define-fun |s349_n P1| ((state |s349_s|)) Bool (= ((_ extract 0 0) (|s349#27| state)) #b1))


(declare-fun |s349#28| (|s349_s|) Bool) 
(declare-fun |s349_h DFF_8| (|s349_s|) |dff_s|)
(define-fun |s349#29| ((state |s349_s|)) (_ BitVec 1) (bvnot (ite (|s349#28| state) #b1 #b0))) 

(define-fun |s349_n P2| ((state |s349_s|)) Bool (= ((_ extract 0 0) (|s349#29| state)) #b1))


(declare-fun |s349#30| (|s349_s|) Bool) 
(declare-fun |s349_h DFF_7| (|s349_s|) |dff_s|)
(define-fun |s349#31| ((state |s349_s|)) (_ BitVec 1) (bvnot (ite (|s349#30| state) #b1 #b0))) 

(define-fun |s349_n P3| ((state |s349_s|)) Bool (= ((_ extract 0 0) (|s349#31| state)) #b1))


(declare-fun |s349#32| (|s349_s|) Bool) 
(declare-fun |s349_h DFF_6| (|s349_s|) |dff_s|)
(define-fun |s349#33| ((state |s349_s|)) (_ BitVec 1) (bvnot (ite (|s349#32| state) #b1 #b0))) 

(define-fun |s349_n P4| ((state |s349_s|)) Bool (= ((_ extract 0 0) (|s349#33| state)) #b1))


(declare-fun |s349#34| (|s349_s|) Bool) 
(declare-fun |s349_h DFF_5| (|s349_s|) |dff_s|)
(define-fun |s349#35| ((state |s349_s|)) (_ BitVec 1) (bvnot (ite (|s349#34| state) #b1 #b0))) 

(define-fun |s349_n P5| ((state |s349_s|)) Bool (= ((_ extract 0 0) (|s349#35| state)) #b1))


(declare-fun |s349#36| (|s349_s|) Bool) 
(declare-fun |s349_h DFF_4| (|s349_s|) |dff_s|)
(define-fun |s349#37| ((state |s349_s|)) (_ BitVec 1) (bvnot (ite (|s349#36| state) #b1 #b0))) 

(define-fun |s349_n P6| ((state |s349_s|)) Bool (= ((_ extract 0 0) (|s349#37| state)) #b1))


(declare-fun |s349#38| (|s349_s|) Bool) 
(declare-fun |s349_h DFF_3| (|s349_s|) |dff_s|)
(define-fun |s349#39| ((state |s349_s|)) (_ BitVec 1) (bvnot (ite (|s349#38| state) #b1 #b0))) 

(define-fun |s349_n P7| ((state |s349_s|)) Bool (= ((_ extract 0 0) (|s349#39| state)) #b1))
(define-fun |s349#40| ((state |s349_s|)) (_ BitVec 1) (bvand (ite (|s349#12| state) #b1 #b0) (|s349#17| state))) 
(define-fun |s349#41| ((state |s349_s|)) (_ BitVec 1) (bvand (|s349#40| state) (ite (|s349#9| state) #b1 #b0))) 

(define-fun |s349_n READY| ((state |s349_s|)) Bool (= ((_ extract 0 0) (|s349#41| state)) #b1))
(declare-fun |s349#42| (|s349_s|) Bool) 


(define-fun |s349_n START| ((state |s349_s|)) Bool (|s349#42| state))
(declare-fun |s349#43| (|s349_s|) Bool) 


(define-fun |s349_n VDD| ((state |s349_s|)) Bool (|s349#43| state))


(declare-fun |s349#44| (|s349_s|) Bool) 
(declare-fun |s349_h DFF_11| (|s349_s|) |dff_s|)


(declare-fun |s349#45| (|s349_s|) Bool) 
(declare-fun |s349_h DFF_12| (|s349_s|) |dff_s|)


(declare-fun |s349#46| (|s349_s|) Bool) 
(declare-fun |s349_h DFF_13| (|s349_s|) |dff_s|)


(declare-fun |s349#47| (|s349_s|) Bool) 
(declare-fun |s349_h DFF_14| (|s349_s|) |dff_s|)
(define-fun |s349#48| ((state |s349_s|)) (_ BitVec 1) (bvor (ite (|s349#12| state) #b1 #b0) (ite (|s349#11| state) #b1 #b0))) 
(define-fun |s349#49| ((state |s349_s|)) (_ BitVec 1) (bvor (|s349#48| state) (ite (|s349#9| state) #b1 #b0))) 
(define-fun |s349#50| ((state |s349_s|)) (_ BitVec 1) (bvnot (|s349#49| state))) 
(define-fun |s349#51| ((state |s349_s|)) (_ BitVec 1) (bvand (|s349#50| state) (ite (|s349#3| state) #b1 #b0))) 
(define-fun |s349#52| ((state |s349_s|)) (_ BitVec 1) (bvand (|s349#49| state) (ite (|s349#44| state) #b1 #b0))) 
(define-fun |s349#53| ((state |s349_s|)) (_ BitVec 1) (bvor (|s349#51| state) (|s349#52| state))) 
(define-fun |s349#54| ((state |s349_s|)) (_ BitVec 1) (bvand (|s349#50| state) (ite (|s349#2| state) #b1 #b0))) 
(define-fun |s349#55| ((state |s349_s|)) (_ BitVec 1) (bvand (|s349#49| state) (ite (|s349#45| state) #b1 #b0))) 
(define-fun |s349#56| ((state |s349_s|)) (_ BitVec 1) (bvor (|s349#54| state) (|s349#55| state))) 
(define-fun |s349#57| ((state |s349_s|)) (_ BitVec 1) (bvand (|s349#50| state) (ite (|s349#1| state) #b1 #b0))) 
(define-fun |s349#58| ((state |s349_s|)) (_ BitVec 1) (bvand (|s349#49| state) (ite (|s349#46| state) #b1 #b0))) 
(define-fun |s349#59| ((state |s349_s|)) (_ BitVec 1) (bvor (|s349#57| state) (|s349#58| state))) 
(define-fun |s349#60| ((state |s349_s|)) (_ BitVec 1) (bvand (|s349#50| state) (ite (|s349#0| state) #b1 #b0))) 
(define-fun |s349#61| ((state |s349_s|)) (_ BitVec 1) (bvand (|s349#49| state) (ite (|s349#47| state) #b1 #b0))) 
(define-fun |s349#62| ((state |s349_s|)) (_ BitVec 1) (bvor (|s349#60| state) (|s349#61| state))) 
(define-fun |s349#63| ((state |s349_s|)) (_ BitVec 1) (bvor (|s349#41| state) (|s349#14| state))) 
(define-fun |s349#64| ((state |s349_s|)) (_ BitVec 1) (bvnot (|s349#63| state))) 
(define-fun |s349#65| ((state |s349_s|)) (_ BitVec 1) (bvor (ite (|s349#9| state) #b1 #b0) (|s349#64| state))) 
(define-fun |s349#66| ((state |s349_s|)) (_ BitVec 1) (bvand (ite (|s349#9| state) #b1 #b0) (|s349#64| state))) 
(define-fun |s349#67| ((state |s349_s|)) (_ BitVec 1) (bvnot (|s349#66| state))) 
(define-fun |s349#68| ((state |s349_s|)) (_ BitVec 1) (bvand (|s349#65| state) (|s349#67| state))) 
(define-fun |s349#69| ((state |s349_s|)) (_ BitVec 1) (bvnot (|s349#68| state))) 
(define-fun |s349#70| ((state |s349_s|)) (_ BitVec 1) (bvor (|s349#69| state) (ite (|s349#42| state) #b1 #b0))) 
(define-fun |s349#71| ((state |s349_s|)) (_ BitVec 1) (bvnot (|s349#70| state))) 
(define-fun |s349#72| ((state |s349_s|)) (_ BitVec 1) (bvnot (ite (|s349#42| state) #b1 #b0))) 
(define-fun |s349#73| ((state |s349_s|)) (_ BitVec 1) (bvor (|s349#41| state) (|s349#50| state))) 
(define-fun |s349#74| ((state |s349_s|)) (_ BitVec 1) (bvnot (|s349#73| state))) 
(define-fun |s349#75| ((state |s349_s|)) (_ BitVec 1) (bvand (|s349#25| state) (ite (|s349#47| state) #b1 #b0))) 
(define-fun |s349#76| ((state |s349_s|)) (_ BitVec 1) (bvand (|s349#75| state) (|s349#33| state))) 
(define-fun |s349#77| ((state |s349_s|)) (_ BitVec 1) (bvand (|s349#25| state) (ite (|s349#46| state) #b1 #b0))) 
(define-fun |s349#78| ((state |s349_s|)) (_ BitVec 1) (bvor (|s349#77| state) (|s349#35| state))) 
(define-fun |s349#79| ((state |s349_s|)) (_ BitVec 1) (bvand (|s349#76| state) (|s349#78| state))) 
(define-fun |s349#80| ((state |s349_s|)) (_ BitVec 1) (bvand (|s349#77| state) (|s349#35| state))) 
(define-fun |s349#81| ((state |s349_s|)) (_ BitVec 1) (bvor (|s349#79| state) (|s349#80| state))) 
(define-fun |s349#82| ((state |s349_s|)) (_ BitVec 1) (bvand (|s349#25| state) (ite (|s349#45| state) #b1 #b0))) 
(define-fun |s349#83| ((state |s349_s|)) (_ BitVec 1) (bvor (|s349#82| state) (|s349#37| state))) 
(define-fun |s349#84| ((state |s349_s|)) (_ BitVec 1) (bvand (|s349#81| state) (|s349#83| state))) 
(define-fun |s349#85| ((state |s349_s|)) (_ BitVec 1) (bvand (|s349#82| state) (|s349#37| state))) 
(define-fun |s349#86| ((state |s349_s|)) (_ BitVec 1) (bvor (|s349#84| state) (|s349#85| state))) 
(define-fun |s349#87| ((state |s349_s|)) (_ BitVec 1) (bvand (|s349#25| state) (ite (|s349#44| state) #b1 #b0))) 
(define-fun |s349#88| ((state |s349_s|)) (_ BitVec 1) (bvor (|s349#87| state) (|s349#39| state))) 
(define-fun |s349#89| ((state |s349_s|)) (_ BitVec 1) (bvand (|s349#86| state) (|s349#88| state))) 
(define-fun |s349#90| ((state |s349_s|)) (_ BitVec 1) (bvand (|s349#87| state) (|s349#39| state))) 
(define-fun |s349#91| ((state |s349_s|)) (_ BitVec 1) (bvor (|s349#89| state) (|s349#90| state))) 
(define-fun |s349#92| ((state |s349_s|)) (_ BitVec 1) (bvand (|s349#74| state) (|s349#91| state))) 
(define-fun |s349#93| ((state |s349_s|)) (_ BitVec 1) (bvand (|s349#73| state) (|s349#39| state))) 
(define-fun |s349#94| ((state |s349_s|)) (_ BitVec 1) (bvor (|s349#92| state) (|s349#93| state))) 
(define-fun |s349#95| ((state |s349_s|)) (_ BitVec 1) (bvand (|s349#72| state) (|s349#94| state))) 
(define-fun |s349#96| ((state |s349_s|)) (_ BitVec 1) (bvnot (|s349#95| state))) 
(define-fun |s349#97| ((state |s349_s|)) (_ BitVec 1) (bvand (|s349#86| state) (|s349#87| state))) 
(define-fun |s349#98| ((state |s349_s|)) (_ BitVec 1) (bvand (|s349#97| state) (|s349#39| state))) 
(define-fun |s349#99| ((state |s349_s|)) (_ BitVec 1) (bvor (|s349#86| state) (|s349#87| state))) 
(define-fun |s349#100| ((state |s349_s|)) (_ BitVec 1) (bvor (|s349#99| state) (|s349#39| state))) 
(define-fun |s349#101| ((state |s349_s|)) (_ BitVec 1) (bvnot (|s349#91| state))) 
(define-fun |s349#102| ((state |s349_s|)) (_ BitVec 1) (bvand (|s349#100| state) (|s349#101| state))) 
(define-fun |s349#103| ((state |s349_s|)) (_ BitVec 1) (bvor (|s349#98| state) (|s349#102| state))) 
(define-fun |s349#104| ((state |s349_s|)) (_ BitVec 1) (bvand (|s349#74| state) (|s349#103| state))) 
(define-fun |s349#105| ((state |s349_s|)) (_ BitVec 1) (bvand (|s349#73| state) (|s349#37| state))) 
(define-fun |s349#106| ((state |s349_s|)) (_ BitVec 1) (bvor (|s349#104| state) (|s349#105| state))) 
(define-fun |s349#107| ((state |s349_s|)) (_ BitVec 1) (bvand (|s349#72| state) (|s349#106| state))) 
(define-fun |s349#108| ((state |s349_s|)) (_ BitVec 1) (bvnot (|s349#107| state))) 
(define-fun |s349#109| ((state |s349_s|)) (_ BitVec 1) (bvnot (|s349#41| state))) 
(define-fun |s349#110| ((state |s349_s|)) (_ BitVec 1) (bvand (|s349#109| state) (ite (|s349#5| state) #b1 #b0))) 
(define-fun |s349#111| ((state |s349_s|)) (_ BitVec 1) (bvand (|s349#41| state) (|s349#27| state))) 
(define-fun |s349#112| ((state |s349_s|)) (_ BitVec 1) (bvor (|s349#110| state) (|s349#111| state))) 
(define-fun |s349#113| ((state |s349_s|)) (_ BitVec 1) (bvand (|s349#73| state) (|s349#112| state))) 
(define-fun |s349#114| ((state |s349_s|)) (_ BitVec 1) (bvand (|s349#74| state) (|s349#29| state))) 
(define-fun |s349#115| ((state |s349_s|)) (_ BitVec 1) (bvor (|s349#113| state) (|s349#114| state))) 
(define-fun |s349#116| ((state |s349_s|)) (_ BitVec 1) (bvnot (|s349#115| state))) 
(define-fun |s349#117| ((state |s349_s|)) (_ BitVec 1) (bvand (|s349#81| state) (|s349#82| state))) 
(define-fun |s349#118| ((state |s349_s|)) (_ BitVec 1) (bvand (|s349#117| state) (|s349#37| state))) 
(define-fun |s349#119| ((state |s349_s|)) (_ BitVec 1) (bvor (|s349#81| state) (|s349#82| state))) 
(define-fun |s349#120| ((state |s349_s|)) (_ BitVec 1) (bvor (|s349#119| state) (|s349#37| state))) 
(define-fun |s349#121| ((state |s349_s|)) (_ BitVec 1) (bvnot (|s349#86| state))) 
(define-fun |s349#122| ((state |s349_s|)) (_ BitVec 1) (bvand (|s349#120| state) (|s349#121| state))) 
(define-fun |s349#123| ((state |s349_s|)) (_ BitVec 1) (bvor (|s349#118| state) (|s349#122| state))) 
(define-fun |s349#124| ((state |s349_s|)) (_ BitVec 1) (bvand (|s349#74| state) (|s349#123| state))) 
(define-fun |s349#125| ((state |s349_s|)) (_ BitVec 1) (bvand (|s349#73| state) (|s349#35| state))) 
(define-fun |s349#126| ((state |s349_s|)) (_ BitVec 1) (bvor (|s349#124| state) (|s349#125| state))) 
(define-fun |s349#127| ((state |s349_s|)) (_ BitVec 1) (bvand (|s349#72| state) (|s349#126| state))) 
(define-fun |s349#128| ((state |s349_s|)) (_ BitVec 1) (bvnot (|s349#127| state))) 
(define-fun |s349#129| ((state |s349_s|)) (_ BitVec 1) (bvand (|s349#76| state) (|s349#77| state))) 
(define-fun |s349#130| ((state |s349_s|)) (_ BitVec 1) (bvand (|s349#129| state) (|s349#35| state))) 
(define-fun |s349#131| ((state |s349_s|)) (_ BitVec 1) (bvor (|s349#76| state) (|s349#77| state))) 
(define-fun |s349#132| ((state |s349_s|)) (_ BitVec 1) (bvor (|s349#131| state) (|s349#35| state))) 
(define-fun |s349#133| ((state |s349_s|)) (_ BitVec 1) (bvnot (|s349#81| state))) 
(define-fun |s349#134| ((state |s349_s|)) (_ BitVec 1) (bvand (|s349#132| state) (|s349#133| state))) 
(define-fun |s349#135| ((state |s349_s|)) (_ BitVec 1) (bvor (|s349#130| state) (|s349#134| state))) 
(define-fun |s349#136| ((state |s349_s|)) (_ BitVec 1) (bvand (|s349#74| state) (|s349#135| state))) 
(define-fun |s349#137| ((state |s349_s|)) (_ BitVec 1) (bvand (|s349#73| state) (|s349#33| state))) 
(define-fun |s349#138| ((state |s349_s|)) (_ BitVec 1) (bvor (|s349#136| state) (|s349#137| state))) 
(define-fun |s349#139| ((state |s349_s|)) (_ BitVec 1) (bvand (|s349#72| state) (|s349#138| state))) 
(define-fun |s349#140| ((state |s349_s|)) (_ BitVec 1) (bvnot (|s349#139| state))) 
(define-fun |s349#141| ((state |s349_s|)) (_ BitVec 1) (bvand (|s349#109| state) (ite (|s349#7| state) #b1 #b0))) 
(define-fun |s349#142| ((state |s349_s|)) (_ BitVec 1) (bvand (|s349#41| state) (|s349#31| state))) 
(define-fun |s349#143| ((state |s349_s|)) (_ BitVec 1) (bvor (|s349#141| state) (|s349#142| state))) 
(define-fun |s349#144| ((state |s349_s|)) (_ BitVec 1) (bvand (|s349#73| state) (|s349#143| state))) 
(define-fun |s349#145| ((state |s349_s|)) (_ BitVec 1) (bvor (|s349#75| state) (|s349#33| state))) 
(define-fun |s349#146| ((state |s349_s|)) (_ BitVec 1) (bvnot (|s349#76| state))) 
(define-fun |s349#147| ((state |s349_s|)) (_ BitVec 1) (bvand (|s349#145| state) (|s349#146| state))) 
(define-fun |s349#148| ((state |s349_s|)) (_ BitVec 1) (bvand (|s349#74| state) (|s349#147| state))) 
(define-fun |s349#149| ((state |s349_s|)) (_ BitVec 1) (bvor (|s349#144| state) (|s349#148| state))) 
(define-fun |s349#150| ((state |s349_s|)) (_ BitVec 1) (bvnot (|s349#149| state))) 
(define-fun |s349#151| ((state |s349_s|)) (_ BitVec 1) (bvand (|s349#109| state) (ite (|s349#6| state) #b1 #b0))) 
(define-fun |s349#152| ((state |s349_s|)) (_ BitVec 1) (bvand (|s349#41| state) (|s349#29| state))) 
(define-fun |s349#153| ((state |s349_s|)) (_ BitVec 1) (bvor (|s349#151| state) (|s349#152| state))) 
(define-fun |s349#154| ((state |s349_s|)) (_ BitVec 1) (bvand (|s349#73| state) (|s349#153| state))) 
(define-fun |s349#155| ((state |s349_s|)) (_ BitVec 1) (bvand (|s349#74| state) (|s349#31| state))) 
(define-fun |s349#156| ((state |s349_s|)) (_ BitVec 1) (bvor (|s349#154| state) (|s349#155| state))) 
(define-fun |s349#157| ((state |s349_s|)) (_ BitVec 1) (bvnot (|s349#156| state))) 
(define-fun |s349#158| ((state |s349_s|)) (_ BitVec 1) (bvand (|s349#109| state) (ite (|s349#4| state) #b1 #b0))) 
(define-fun |s349#159| ((state |s349_s|)) (_ BitVec 1) (bvand (|s349#41| state) (|s349#25| state))) 
(define-fun |s349#160| ((state |s349_s|)) (_ BitVec 1) (bvor (|s349#158| state) (|s349#159| state))) 
(define-fun |s349#161| ((state |s349_s|)) (_ BitVec 1) (bvand (|s349#73| state) (|s349#160| state))) 
(define-fun |s349#162| ((state |s349_s|)) (_ BitVec 1) (bvand (|s349#74| state) (|s349#27| state))) 
(define-fun |s349#163| ((state |s349_s|)) (_ BitVec 1) (bvor (|s349#161| state) (|s349#162| state))) 
(define-fun |s349#164| ((state |s349_s|)) (_ BitVec 1) (bvnot (|s349#163| state))) 
(define-fun |s349#165| ((state |s349_s|)) (_ BitVec 1) (bvor (|s349#41| state) (|s349#18| state))) 
(define-fun |s349#166| ((state |s349_s|)) (_ BitVec 1) (bvnot (|s349#165| state))) 
(define-fun |s349#167| ((state |s349_s|)) (_ BitVec 1) (bvor (ite (|s349#11| state) #b1 #b0) (|s349#166| state))) 
(define-fun |s349#168| ((state |s349_s|)) (_ BitVec 1) (bvand (ite (|s349#11| state) #b1 #b0) (|s349#166| state))) 
(define-fun |s349#169| ((state |s349_s|)) (_ BitVec 1) (bvnot (|s349#168| state))) 
(define-fun |s349#170| ((state |s349_s|)) (_ BitVec 1) (bvand (|s349#167| state) (|s349#169| state))) 
(define-fun |s349#171| ((state |s349_s|)) (_ BitVec 1) (bvnot (|s349#170| state))) 
(define-fun |s349#172| ((state |s349_s|)) (_ BitVec 1) (bvor (|s349#171| state) (ite (|s349#42| state) #b1 #b0))) 
(define-fun |s349#173| ((state |s349_s|)) (_ BitVec 1) (bvnot (|s349#172| state))) 
(define-fun |s349#174| ((state |s349_s|)) (_ BitVec 1) (bvor (ite (|s349#12| state) #b1 #b0) (|s349#109| state))) 
(define-fun |s349#175| ((state |s349_s|)) (_ BitVec 1) (bvand (ite (|s349#12| state) #b1 #b0) (|s349#109| state))) 
(define-fun |s349#176| ((state |s349_s|)) (_ BitVec 1) (bvnot (|s349#175| state))) 
(define-fun |s349#177| ((state |s349_s|)) (_ BitVec 1) (bvand (|s349#174| state) (|s349#176| state))) 
(define-fun |s349#178| ((state |s349_s|)) (_ BitVec 1) (bvnot (|s349#177| state))) 
(define-fun |s349#179| ((state |s349_s|)) (_ BitVec 1) (bvor (|s349#178| state) (ite (|s349#42| state) #b1 #b0))) 
(define-fun |s349#180| ((state |s349_s|)) (_ BitVec 1) (bvnot (|s349#179| state))) 
(define-fun |s349_a| ((state |s349_s|)) Bool (and
  (|dff_a| (|s349_h DFF_11| state))
  (|dff_a| (|s349_h DFF_12| state))
  (|dff_a| (|s349_h DFF_13| state))
  (|dff_a| (|s349_h DFF_14| state))
  (|dff_a| (|s349_h DFF_0| state))
  (|dff_a| (|s349_h DFF_3| state))
  (|dff_a| (|s349_h DFF_4| state))
  (|dff_a| (|s349_h DFF_9| state))
  (|dff_a| (|s349_h DFF_5| state))
  (|dff_a| (|s349_h DFF_6| state))
  (|dff_a| (|s349_h DFF_7| state))
  (|dff_a| (|s349_h DFF_8| state))
  (|dff_a| (|s349_h DFF_10| state))
  (|dff_a| (|s349_h DFF_1| state))
  (|dff_a| (|s349_h DFF_2| state))
))
(define-fun |s349_u| ((state |s349_s|)) Bool (and
  (|dff_u| (|s349_h DFF_11| state))
  (|dff_u| (|s349_h DFF_12| state))
  (|dff_u| (|s349_h DFF_13| state))
  (|dff_u| (|s349_h DFF_14| state))
  (|dff_u| (|s349_h DFF_0| state))
  (|dff_u| (|s349_h DFF_3| state))
  (|dff_u| (|s349_h DFF_4| state))
  (|dff_u| (|s349_h DFF_9| state))
  (|dff_u| (|s349_h DFF_5| state))
  (|dff_u| (|s349_h DFF_6| state))
  (|dff_u| (|s349_h DFF_7| state))
  (|dff_u| (|s349_h DFF_8| state))
  (|dff_u| (|s349_h DFF_10| state))
  (|dff_u| (|s349_h DFF_1| state))
  (|dff_u| (|s349_h DFF_2| state))
))
(define-fun |s349_i| ((state |s349_s|)) Bool (and
  (|dff_i| (|s349_h DFF_11| state))
  (|dff_i| (|s349_h DFF_12| state))
  (|dff_i| (|s349_h DFF_13| state))
  (|dff_i| (|s349_h DFF_14| state))
  (|dff_i| (|s349_h DFF_0| state))
  (|dff_i| (|s349_h DFF_3| state))
  (|dff_i| (|s349_h DFF_4| state))
  (|dff_i| (|s349_h DFF_9| state))
  (|dff_i| (|s349_h DFF_5| state))
  (|dff_i| (|s349_h DFF_6| state))
  (|dff_i| (|s349_h DFF_7| state))
  (|dff_i| (|s349_h DFF_8| state))
  (|dff_i| (|s349_h DFF_10| state))
  (|dff_i| (|s349_h DFF_1| state))
  (|dff_i| (|s349_h DFF_2| state))
))
(define-fun |s349_h| ((state |s349_s|)) Bool (and
  (= (|s349_is| state) (|dff_is| (|s349_h DFF_11| state)))
  (= (|s349#8| state) (|dff_n CK| (|s349_h DFF_11| state))) 
  (= (= ((_ extract 0 0) (|s349#53| state)) #b1) (|dff_n D| (|s349_h DFF_11| state))) 
  (= (|s349#44| state) (|dff_n Q| (|s349_h DFF_11| state))) 
  (= (|s349_is| state) (|dff_is| (|s349_h DFF_12| state)))
  (= (|s349#8| state) (|dff_n CK| (|s349_h DFF_12| state))) 
  (= (= ((_ extract 0 0) (|s349#56| state)) #b1) (|dff_n D| (|s349_h DFF_12| state))) 
  (= (|s349#45| state) (|dff_n Q| (|s349_h DFF_12| state))) 
  (= (|s349_is| state) (|dff_is| (|s349_h DFF_13| state)))
  (= (|s349#8| state) (|dff_n CK| (|s349_h DFF_13| state))) 
  (= (= ((_ extract 0 0) (|s349#59| state)) #b1) (|dff_n D| (|s349_h DFF_13| state))) 
  (= (|s349#46| state) (|dff_n Q| (|s349_h DFF_13| state))) 
  (= (|s349_is| state) (|dff_is| (|s349_h DFF_14| state)))
  (= (|s349#8| state) (|dff_n CK| (|s349_h DFF_14| state))) 
  (= (= ((_ extract 0 0) (|s349#62| state)) #b1) (|dff_n D| (|s349_h DFF_14| state))) 
  (= (|s349#47| state) (|dff_n Q| (|s349_h DFF_14| state))) 
  (= (|s349_is| state) (|dff_is| (|s349_h DFF_0| state)))
  (= (|s349#8| state) (|dff_n CK| (|s349_h DFF_0| state))) 
  (= (= ((_ extract 0 0) (|s349#71| state)) #b1) (|dff_n D| (|s349_h DFF_0| state))) 
  (= (|s349#9| state) (|dff_n Q| (|s349_h DFF_0| state))) 
  (= (|s349_is| state) (|dff_is| (|s349_h DFF_3| state)))
  (= (|s349#8| state) (|dff_n CK| (|s349_h DFF_3| state))) 
  (= (= ((_ extract 0 0) (|s349#96| state)) #b1) (|dff_n D| (|s349_h DFF_3| state))) 
  (= (|s349#38| state) (|dff_n Q| (|s349_h DFF_3| state))) 
  (= (|s349_is| state) (|dff_is| (|s349_h DFF_4| state)))
  (= (|s349#8| state) (|dff_n CK| (|s349_h DFF_4| state))) 
  (= (= ((_ extract 0 0) (|s349#108| state)) #b1) (|dff_n D| (|s349_h DFF_4| state))) 
  (= (|s349#36| state) (|dff_n Q| (|s349_h DFF_4| state))) 
  (= (|s349_is| state) (|dff_is| (|s349_h DFF_9| state)))
  (= (|s349#8| state) (|dff_n CK| (|s349_h DFF_9| state))) 
  (= (= ((_ extract 0 0) (|s349#116| state)) #b1) (|dff_n D| (|s349_h DFF_9| state))) 
  (= (|s349#26| state) (|dff_n Q| (|s349_h DFF_9| state))) 
  (= (|s349_is| state) (|dff_is| (|s349_h DFF_5| state)))
  (= (|s349#8| state) (|dff_n CK| (|s349_h DFF_5| state))) 
  (= (= ((_ extract 0 0) (|s349#128| state)) #b1) (|dff_n D| (|s349_h DFF_5| state))) 
  (= (|s349#34| state) (|dff_n Q| (|s349_h DFF_5| state))) 
  (= (|s349_is| state) (|dff_is| (|s349_h DFF_6| state)))
  (= (|s349#8| state) (|dff_n CK| (|s349_h DFF_6| state))) 
  (= (= ((_ extract 0 0) (|s349#140| state)) #b1) (|dff_n D| (|s349_h DFF_6| state))) 
  (= (|s349#32| state) (|dff_n Q| (|s349_h DFF_6| state))) 
  (= (|s349_is| state) (|dff_is| (|s349_h DFF_7| state)))
  (= (|s349#8| state) (|dff_n CK| (|s349_h DFF_7| state))) 
  (= (= ((_ extract 0 0) (|s349#150| state)) #b1) (|dff_n D| (|s349_h DFF_7| state))) 
  (= (|s349#30| state) (|dff_n Q| (|s349_h DFF_7| state))) 
  (= (|s349_is| state) (|dff_is| (|s349_h DFF_8| state)))
  (= (|s349#8| state) (|dff_n CK| (|s349_h DFF_8| state))) 
  (= (= ((_ extract 0 0) (|s349#157| state)) #b1) (|dff_n D| (|s349_h DFF_8| state))) 
  (= (|s349#28| state) (|dff_n Q| (|s349_h DFF_8| state))) 
  (= (|s349_is| state) (|dff_is| (|s349_h DFF_10| state)))
  (= (|s349#8| state) (|dff_n CK| (|s349_h DFF_10| state))) 
  (= (= ((_ extract 0 0) (|s349#164| state)) #b1) (|dff_n D| (|s349_h DFF_10| state))) 
  (= (|s349#24| state) (|dff_n Q| (|s349_h DFF_10| state))) 
  (= (|s349_is| state) (|dff_is| (|s349_h DFF_1| state)))
  (= (|s349#8| state) (|dff_n CK| (|s349_h DFF_1| state))) 
  (= (= ((_ extract 0 0) (|s349#173| state)) #b1) (|dff_n D| (|s349_h DFF_1| state))) 
  (= (|s349#11| state) (|dff_n Q| (|s349_h DFF_1| state))) 
  (= (|s349_is| state) (|dff_is| (|s349_h DFF_2| state)))
  (= (|s349#8| state) (|dff_n CK| (|s349_h DFF_2| state))) 
  (= (= ((_ extract 0 0) (|s349#180| state)) #b1) (|dff_n D| (|s349_h DFF_2| state))) 
  (= (|s349#12| state) (|dff_n Q| (|s349_h DFF_2| state))) 
  (|dff_h| (|s349_h DFF_11| state))
  (|dff_h| (|s349_h DFF_12| state))
  (|dff_h| (|s349_h DFF_13| state))
  (|dff_h| (|s349_h DFF_14| state))
  (|dff_h| (|s349_h DFF_0| state))
  (|dff_h| (|s349_h DFF_3| state))
  (|dff_h| (|s349_h DFF_4| state))
  (|dff_h| (|s349_h DFF_9| state))
  (|dff_h| (|s349_h DFF_5| state))
  (|dff_h| (|s349_h DFF_6| state))
  (|dff_h| (|s349_h DFF_7| state))
  (|dff_h| (|s349_h DFF_8| state))
  (|dff_h| (|s349_h DFF_10| state))
  (|dff_h| (|s349_h DFF_1| state))
  (|dff_h| (|s349_h DFF_2| state))
))
(define-fun |s349_t| ((state |s349_s|) (next_state |s349_s|)) Bool (and
  (|dff_t| (|s349_h DFF_11| state) (|s349_h DFF_11| next_state))
  (|dff_t| (|s349_h DFF_12| state) (|s349_h DFF_12| next_state))
  (|dff_t| (|s349_h DFF_13| state) (|s349_h DFF_13| next_state))
  (|dff_t| (|s349_h DFF_14| state) (|s349_h DFF_14| next_state))
  (|dff_t| (|s349_h DFF_0| state) (|s349_h DFF_0| next_state))
  (|dff_t| (|s349_h DFF_3| state) (|s349_h DFF_3| next_state))
  (|dff_t| (|s349_h DFF_4| state) (|s349_h DFF_4| next_state))
  (|dff_t| (|s349_h DFF_9| state) (|s349_h DFF_9| next_state))
  (|dff_t| (|s349_h DFF_5| state) (|s349_h DFF_5| next_state))
  (|dff_t| (|s349_h DFF_6| state) (|s349_h DFF_6| next_state))
  (|dff_t| (|s349_h DFF_7| state) (|s349_h DFF_7| next_state))
  (|dff_t| (|s349_h DFF_8| state) (|s349_h DFF_8| next_state))
  (|dff_t| (|s349_h DFF_10| state) (|s349_h DFF_10| next_state))
  (|dff_t| (|s349_h DFF_1| state) (|s349_h DFF_1| next_state))
  (|dff_t| (|s349_h DFF_2| state) (|s349_h DFF_2| next_state))
)) 

